(set-logic QF_S)
(declare-fun N () String)
(declare-fun J () String)
(declare-fun I () String)
(declare-fun K () String)
(declare-fun H () String)
(declare-fun G () String)
(declare-fun L () String)
(declare-fun O () String)
(declare-fun M () String)
(declare-fun P () String)
(declare-fun Q () String)
(assert (= (str.++  I "aaaa" H "aa" I "aaaa" H "ab" K I "aa" I I "b" L "aab" O N "b" P)  (str.++  "a" H H G "a" J K I J K I "baa" L "aa" L "ba" M "a" M "b" Q Q "baa") ))
(check-sat)
(get-model)
